p cep 139 4513
1 2
1 4
1 12
1 14
1 16
1 17
1 20
1 21
1 25
1 26
1 31
1 33
1 34
1 47
1 48
1 56
1 62
1 63
1 64
1 67
1 68
1 69
1 73
1 75
1 77
1 78
1 80
1 84
1 95
1 98
1 114
1 116
1 117
1 123
1 125
1 126
1 128
1 132
1 137
1 138
2 4
2 12
2 16
2 20
2 21
2 25
2 26
2 31
2 34
2 62
2 68
2 69
2 75
2 87
2 128
3 5
3 6
3 7
3 10
3 11
3 15
3 18
3 19
3 22
3 23
3 24
3 27
3 28
3 29
3 30
3 32
3 35
3 36
3 37
3 38
3 39
3 40
3 41
3 42
3 43
3 44
3 45
3 46
3 49
3 50
3 51
3 52
3 53
3 54
3 55
3 57
3 58
3 59
3 60
3 61
3 65
3 66
3 70
3 71
3 72
3 74
3 76
3 79
3 81
3 82
3 83
3 85
3 86
3 88
3 89
3 90
3 91
3 92
3 93
3 94
3 96
3 97
3 99
3 100
3 101
3 102
3 103
3 107
3 108
3 109
3 110
3 111
3 112
3 113
3 115
3 118
3 119
3 120
3 121
3 122
3 124
3 130
3 131
3 133
3 134
3 135
3 136
3 139
4 12
4 14
4 16
4 20
4 21
4 25
4 26
4 31
4 34
4 56
4 62
4 63
4 64
4 68
4 69
4 73
4 75
4 77
4 78
4 80
4 84
4 98
4 114
4 117
4 123
4 125
4 126
4 128
4 132
5 6
5 7
5 10
5 11
5 15
5 18
5 19
5 23
5 24
5 27
5 28
5 29
5 30
5 32
5 35
5 36
5 37
5 39
5 40
5 42
5 43
5 44
5 46
5 49
5 50
5 51
5 52
5 53
5 54
5 55
5 57
5 58
5 59
5 60
5 61
5 65
5 66
5 70
5 71
5 74
5 76
5 79
5 81
5 82
5 85
5 86
5 88
5 89
5 90
5 92
5 94
5 96
5 97
5 99
5 100
5 103
5 107
5 109
5 110
5 111
5 112
5 113
5 115
5 118
5 119
5 121
5 122
5 130
5 131
5 133
5 134
5 139
6 7
6 8
6 10
6 11
6 13
6 15
6 18
6 19
6 22
6 23
6 24
6 27
6 28
6 29
6 30
6 32
6 35
6 36
6 37
6 38
6 39
6 40
6 41
6 42
6 43
6 44
6 45
6 46
6 49
6 50
6 51
6 52
6 53
6 54
6 55
6 57
6 58
6 59
6 60
6 61
6 65
6 66
6 70
6 71
6 72
6 74
6 76
6 79
6 81
6 82
6 85
6 86
6 88
6 89
6 90
6 91
6 92
6 93
6 94
6 96
6 97
6 99
6 100
6 101
6 102
6 103
6 104
6 105
6 107
6 108
6 109
6 110
6 111
6 112
6 113
6 115
6 118
6 119
6 120
6 121
6 122
6 124
6 127
6 129
6 130
6 131
6 133
6 134
6 135
6 136
6 139
7 10
7 11
7 13
7 15
7 18
7 19
7 22
7 23
7 24
7 27
7 28
7 29
7 30
7 32
7 35
7 36
7 37
7 38
7 39
7 40
7 41
7 42
7 43
7 44
7 45
7 46
7 49
7 51
7 52
7 53
7 54
7 55
7 57
7 58
7 59
7 60
7 61
7 65
7 66
7 70
7 71
7 72
7 74
7 76
7 79
7 81
7 82
7 83
7 85
7 86
7 88
7 89
7 90
7 91
7 92
7 93
7 94
7 96
7 97
7 99
7 100
7 101
7 102
7 103
7 104
7 105
7 107
7 108
7 109
7 110
7 111
7 112
7 113
7 115
7 118
7 119
7 120
7 121
7 122
7 124
7 127
7 130
7 131
7 133
7 134
7 136
7 139
8 11
8 24
8 36
8 37
8 38
8 40
8 46
8 49
8 52
8 54
8 60
8 61
8 65
8 70
8 72
8 82
8 85
8 89
8 90
8 93
8 100
8 101
8 113
8 118
8 119
8 124
8 135
8 139
9 63
9 73
9 78
9 84
9 98
9 106
10 11
10 13
10 15
10 18
10 19
10 22
10 23
10 24
10 27
10 28
10 29
10 30
10 32
10 35
10 36
10 37
10 38
10 39
10 40
10 41
10 42
10 43
10 44
10 45
10 46
10 49
10 50
10 51
10 52
10 53
10 54
10 55
10 57
10 58
10 59
10 60
10 61
10 65
10 66
10 70
10 71
10 72
10 74
10 76
10 79
10 81
10 82
10 83
10 85
10 86
10 88
10 89
10 90
10 91
10 92
10 94
10 96
10 97
10 99
10 100
10 101
10 102
10 103
10 107
10 108
10 109
10 110
10 111
10 112
10 113
10 115
10 118
10 119
10 120
10 121
10 122
10 124
10 127
10 130
10 131
10 133
10 134
10 135
10 136
10 139
11 15
11 18
11 19
11 22
11 23
11 24
11 27
11 28
11 29
11 30
11 32
11 35
11 36
11 37
11 38
11 39
11 40
11 41
11 42
11 43
11 44
11 45
11 46
11 49
11 50
11 51
11 52
11 53
11 54
11 55
11 57
11 58
11 59
11 60
11 61
11 65
11 66
11 70
11 71
11 72
11 74
11 76
11 79
11 81
11 82
11 83
11 85
11 86
11 88
11 89
11 90
11 91
11 92
11 93
11 94
11 96
11 97
11 99
11 100
11 101
11 102
11 103
11 104
11 105
11 107
11 108
11 109
11 110
11 111
11 112
11 113
11 115
11 118
11 119
11 120
11 121
11 122
11 124
11 130
11 131
11 133
11 134
11 136
11 139
12 14
12 16
12 17
12 20
12 21
12 25
12 26
12 31
12 33
12 34
12 47
12 48
12 56
12 62
12 63
12 64
12 67
12 68
12 69
12 73
12 75
12 77
12 78
12 80
12 84
12 87
12 95
12 98
12 114
12 116
12 117
12 123
12 126
12 128
12 132
12 137
12 138
13 15
13 18
13 19
13 23
13 24
13 28
13 32
13 35
13 36
13 37
13 38
13 39
13 43
13 44
13 46
13 50
13 51
13 52
13 55
13 57
13 58
13 59
13 60
13 61
13 65
13 66
13 70
13 71
13 74
13 79
13 81
13 82
13 85
13 86
13 88
13 89
13 90
13 91
13 94
13 97
13 100
13 101
13 103
13 105
13 107
13 109
13 110
13 111
13 113
13 115
13 118
13 119
13 121
13 122
13 127
13 129
13 131
13 133
13 139
14 16
14 20
14 21
14 25
14 26
14 31
14 34
14 47
14 62
14 63
14 64
14 68
14 69
14 73
14 75
14 77
14 78
14 80
14 84
14 98
14 114
14 123
14 125
14 128
14 132
15 18
15 19
15 22
15 23
15 24
15 27
15 28
15 29
15 30
15 32
15 35
15 36
15 37
15 38
15 39
15 40
15 41
15 42
15 43
15 44
15 45
15 46
15 49
15 50
15 51
15 52
15 53
15 54
15 55
15 57
15 58
15 59
15 60
15 61
15 65
15 66
15 70
15 71
15 72
15 74
15 76
15 79
15 81
15 82
15 83
15 85
15 86
15 88
15 89
15 90
15 91
15 92
15 93
15 94
15 96
15 97
15 99
15 100
15 101
15 102
15 103
15 104
15 105
15 107
15 108
15 109
15 110
15 111
15 112
15 113
15 115
15 118
15 119
15 120
15 121
15 122
15 124
15 127
15 129
15 130
15 131
15 133
15 134
15 135
15 136
15 139
16 20
16 21
16 25
16 26
16 31
16 34
16 62
16 63
16 64
16 68
16 69
16 73
16 75
16 77
16 78
16 80
16 84
16 98
16 114
16 117
16 123
16 125
16 126
16 128
16 132
17 47
17 68
17 69
17 75
17 116
17 123
18 19
18 22
18 23
18 24
18 27
18 28
18 29
18 30
18 32
18 35
18 36
18 37
18 38
18 39
18 40
18 41
18 42
18 43
18 44
18 45
18 46
18 49
18 50
18 51
18 52
18 53
18 54
18 55
18 57
18 58
18 59
18 60
18 61
18 65
18 66
18 70
18 71
18 74
18 79
18 81
18 82
18 85
18 86
18 88
18 89
18 90
18 91
18 92
18 93
18 94
18 96
18 97
18 100
18 101
18 102
18 103
18 105
18 107
18 108
18 109
18 110
18 111
18 112
18 113
18 115
18 118
18 119
18 121
18 122
18 124
18 127
18 129
18 130
18 131
18 133
18 134
18 136
18 139
19 22
19 23
19 24
19 27
19 28
19 29
19 30
19 32
19 35
19 36
19 37
19 38
19 39
19 40
19 41
19 42
19 43
19 44
19 45
19 46
19 49
19 50
19 51
19 52
19 53
19 54
19 55
19 57
19 58
19 59
19 60
19 61
19 65
19 66
19 70
19 71
19 74
19 79
19 81
19 82
19 85
19 86
19 88
19 89
19 90
19 91
19 92
19 94
19 96
19 97
19 100
19 101
19 102
19 103
19 105
19 107
19 108
19 109
19 110
19 111
19 112
19 113
19 115
19 118
19 119
19 120
19 121
19 122
19 124
19 127
19 130
19 131
19 133
19 134
19 136
19 139
20 21
20 25
20 26
20 31
20 34
20 56
20 62
20 63
20 64
20 68
20 69
20 73
20 75
20 77
20 78
20 80
20 84
20 98
20 114
20 117
20 123
20 125
20 126
20 128
20 132
21 25
21 26
21 31
21 34
21 62
21 63
21 64
21 68
21 69
21 73
21 75
21 77
21 78
21 80
21 84
21 95
21 98
21 114
21 117
21 123
21 125
21 126
21 128
21 132
22 23
22 24
22 27
22 28
22 30
22 32
22 35
22 36
22 37
22 38
22 40
22 41
22 42
22 44
22 45
22 46
22 49
22 50
22 51
22 52
22 53
22 54
22 55
22 57
22 58
22 59
22 60
22 61
22 65
22 70
22 71
22 74
22 79
22 81
22 82
22 85
22 86
22 88
22 89
22 90
22 91
22 92
22 93
22 94
22 96
22 97
22 100
22 101
22 103
22 104
22 105
22 107
22 109
22 110
22 112
22 113
22 115
22 118
22 119
22 121
22 122
22 124
22 130
22 133
22 139
23 24
23 27
23 28
23 29
23 30
23 32
23 35
23 36
23 37
23 38
23 39
23 40
23 41
23 42
23 43
23 44
23 45
23 46
23 49
23 50
23 51
23 52
23 53
23 54
23 55
23 57
23 58
23 59
23 60
23 61
23 65
23 66
23 70
23 71
23 74
23 76
23 79
23 81
23 82
23 83
23 85
23 86
23 88
23 89
23 90
23 91
23 92
23 93
23 94
23 96
23 97
23 100
23 101
23 102
23 103
23 105
23 107
23 108
23 109
23 110
23 111
23 112
23 113
23 115
23 118
23 119
23 121
23 122
23 124
23 127
23 129
23 130
23 131
23 133
23 134
23 135
23 136
23 139
24 27
24 28
24 29
24 30
24 32
24 35
24 36
24 37
24 38
24 39
24 40
24 41
24 42
24 43
24 44
24 45
24 46
24 49
24 50
24 51
24 52
24 53
24 54
24 55
24 57
24 58
24 59
24 60
24 61
24 65
24 66
24 70
24 71
24 72
24 74
24 76
24 79
24 81
24 82
24 83
24 85
24 86
24 88
24 89
24 90
24 91
24 92
24 93
24 94
24 96
24 97
24 99
24 100
24 101
24 102
24 103
24 104
24 105
24 107
24 108
24 109
24 110
24 111
24 112
24 113
24 115
24 118
24 119
24 120
24 121
24 122
24 124
24 127
24 129
24 130
24 131
24 133
24 134
24 135
24 136
24 139
25 26
25 31
25 34
25 56
25 63
25 64
25 68
25 69
25 73
25 75
25 77
25 78
25 84
25 98
25 114
25 117
25 125
25 126
25 128
25 132
26 31
26 34
26 56
26 62
26 63
26 64
26 68
26 69
26 73
26 75
26 77
26 78
26 80
26 84
26 98
26 114
26 117
26 123
26 125
26 126
26 128
26 132
27 28
27 29
27 30
27 32
27 35
27 36
27 37
27 38
27 39
27 41
27 42
27 43
27 44
27 45
27 46
27 49
27 50
27 51
27 52
27 54
27 55
27 57
27 58
27 59
27 60
27 61
27 65
27 66
27 70
27 71
27 74
27 76
27 79
27 81
27 82
27 85
27 86
27 88
27 89
27 90
27 91
27 92
27 94
27 96
27 97
27 100
27 101
27 103
27 105
27 107
27 109
27 110
27 111
27 112
27 113
27 115
27 118
27 119
27 121
27 122
27 124
27 130
27 131
27 133
27 134
27 139
28 29
28 30
28 32
28 35
28 36
28 37
28 38
28 39
28 40
28 41
28 42
28 43
28 44
28 45
28 46
28 49
28 50
28 51
28 52
28 53
28 54
28 55
28 57
28 58
28 59
28 60
28 61
28 65
28 66
28 70
28 71
28 72
28 74
28 76
28 79
28 81
28 82
28 83
28 85
28 86
28 88
28 89
28 90
28 91
28 92
28 93
28 94
28 96
28 97
28 100
28 101
28 102
28 103
28 104
28 105
28 107
28 108
28 109
28 110
28 111
28 112
28 113
28 115
28 118
28 119
28 121
28 122
28 124
28 127
28 129
28 130
28 131
28 133
28 134
28 136
28 139
29 30
29 32
29 35
29 36
29 37
29 38
29 39
29 40
29 42
29 43
29 44
29 46
29 49
29 50
29 51
29 52
29 53
29 54
29 55
29 57
29 58
29 59
29 60
29 61
29 65
29 66
29 70
29 71
29 74
29 76
29 79
29 81
29 82
29 85
29 86
29 88
29 89
29 90
29 92
29 94
29 96
29 97
29 100
29 101
29 103
29 105
29 107
29 109
29 110
29 111
29 112
29 113
29 115
29 118
29 119
29 121
29 122
29 130
29 131
29 133
29 134
29 139
30 32
30 35
30 36
30 37
30 38
30 39
30 40
30 41
30 42
30 44
30 45
30 46
30 49
30 50
30 51
30 52
30 53
30 54
30 55
30 57
30 58
30 59
30 60
30 61
30 65
30 66
30 70
30 71
30 72
30 74
30 76
30 79
30 81
30 82
30 83
30 85
30 86
30 88
30 89
30 90
30 91
30 92
30 94
30 96
30 97
30 99
30 100
30 101
30 102
30 103
30 104
30 105
30 107
30 108
30 109
30 110
30 111
30 112
30 113
30 115
30 118
30 119
30 120
30 121
30 122
30 124
30 130
30 133
30 134
30 135
30 136
30 139
31 34
31 56
31 62
31 63
31 64
31 68
31 69
31 73
31 75
31 77
31 78
31 80
31 84
31 95
31 98
31 114
31 117
31 123
31 125
31 126
31 128
31 132
31 138
32 35
32 36
32 37
32 38
32 39
32 40
32 41
32 42
32 43
32 44
32 45
32 46
32 49
32 50
32 51
32 52
32 53
32 54
32 55
32 57
32 58
32 59
32 60
32 61
32 65
32 66
32 70
32 71
32 72
32 74
32 79
32 81
32 82
32 85
32 86
32 88
32 89
32 90
32 91
32 92
32 94
32 96
32 97
32 100
32 101
32 103
32 105
32 107
32 108
32 109
32 110
32 111
32 112
32 113
32 115
32 118
32 119
32 121
32 122
32 124
32 127
32 129
32 130
32 131
32 133
32 134
32 139
33 48
33 62
33 67
33 69
33 75
33 77
33 117
33 123
33 126
33 137
34 56
34 62
34 63
34 64
34 68
34 69
34 73
34 75
34 77
34 78
34 80
34 84
34 98
34 114
34 117
34 123
34 125
34 126
34 128
34 132
35 36
35 37
35 38
35 39
35 41
35 42
35 43
35 44
35 45
35 46
35 49
35 50
35 51
35 52
35 55
35 57
35 58
35 59
35 60
35 61
35 65
35 66
35 70
35 71
35 74
35 79
35 81
35 82
35 85
35 86
35 88
35 89
35 90
35 91
35 92
35 94
35 96
35 97
35 100
35 101
35 103
35 105
35 107
35 109
35 110
35 111
35 112
35 113
35 115
35 118
35 119
35 121
35 122
35 127
35 129
35 130
35 131
35 133
35 134
35 139
36 37
36 38
36 39
36 40
36 41
36 42
36 43
36 44
36 45
36 46
36 49
36 50
36 51
36 52
36 53
36 54
36 55
36 57
36 58
36 59
36 60
36 61
36 65
36 66
36 70
36 71
36 72
36 74
36 76
36 79
36 81
36 82
36 83
36 85
36 86
36 88
36 89
36 90
36 91
36 92
36 93
36 94
36 96
36 97
36 99
36 100
36 101
36 102
36 103
36 104
36 105
36 107
36 108
36 109
36 110
36 111
36 112
36 113
36 115
36 118
36 119
36 120
36 121
36 122
36 124
36 127
36 130
36 131
36 133
36 134
36 135
36 136
36 139
37 38
37 39
37 40
37 41
37 42
37 43
37 44
37 45
37 46
37 49
37 50
37 51
37 52
37 53
37 54
37 55
37 57
37 58
37 59
37 60
37 61
37 65
37 66
37 69
37 70
37 71
37 72
37 74
37 75
37 76
37 79
37 81
37 82
37 83
37 85
37 86
37 88
37 89
37 90
37 91
37 92
37 93
37 94
37 96
37 97
37 99
37 100
37 101
37 102
37 103
37 104
37 105
37 107
37 108
37 109
37 110
37 111
37 112
37 113
37 115
37 118
37 119
37 120
37 121
37 122
37 124
37 127
37 129
37 130
37 131
37 133
37 134
37 135
37 136
37 139
38 39
38 40
38 41
38 42
38 43
38 44
38 45
38 46
38 49
38 50
38 51
38 52
38 53
38 54
38 55
38 57
38 58
38 59
38 60
38 61
38 65
38 66
38 70
38 71
38 72
38 74
38 76
38 79
38 81
38 82
38 83
38 85
38 86
38 88
38 89
38 90
38 91
38 92
38 93
38 94
38 96
38 97
38 100
38 101
38 102
38 103
38 104
38 105
38 107
38 108
38 109
38 110
38 111
38 112
38 113
38 115
38 118
38 119
38 120
38 121
38 122
38 124
38 127
38 130
38 131
38 133
38 134
38 135
38 136
38 139
39 40
39 41
39 42
39 43
39 44
39 45
39 46
39 49
39 50
39 51
39 52
39 53
39 54
39 55
39 57
39 58
39 59
39 60
39 61
39 65
39 66
39 70
39 71
39 74
39 76
39 79
39 81
39 82
39 83
39 85
39 86
39 88
39 89
39 90
39 91
39 92
39 94
39 96
39 97
39 100
39 101
39 102
39 103
39 105
39 107
39 108
39 109
39 110
39 111
39 112
39 113
39 115
39 118
39 119
39 120
39 121
39 122
39 124
39 127
39 130
39 131
39 133
39 134
39 135
39 136
39 139
40 41
40 42
40 43
40 44
40 45
40 46
40 49
40 50
40 51
40 52
40 53
40 54
40 55
40 57
40 58
40 59
40 60
40 61
40 65
40 66
40 70
40 71
40 72
40 74
40 76
40 79
40 81
40 82
40 83
40 85
40 86
40 88
40 89
40 90
40 91
40 92
40 93
40 94
40 96
40 97
40 99
40 100
40 101
40 102
40 103
40 105
40 107
40 108
40 109
40 110
40 111
40 112
40 113
40 115
40 118
40 119
40 120
40 121
40 122
40 124
40 130
40 131
40 133
40 134
40 136
40 139
41 42
41 43
41 44
41 45
41 46
41 49
41 50
41 51
41 52
41 54
41 55
41 57
41 58
41 59
41 60
41 61
41 65
41 66
41 70
41 71
41 72
41 74
41 76
41 79
41 81
41 82
41 85
41 86
41 88
41 89
41 90
41 91
41 92
41 94
41 96
41 97
41 100
41 101
41 102
41 103
41 105
41 107
41 108
41 109
41 110
41 111
41 112
41 113
41 115
41 118
41 119
41 120
41 121
41 122
41 124
41 130
41 133
41 134
41 136
41 139
42 43
42 44
42 45
42 46
42 49
42 50
42 51
42 52
42 53
42 54
42 55
42 57
42 58
42 59
42 60
42 61
42 65
42 66
42 70
42 71
42 72
42 74
42 76
42 79
42 81
42 82
42 85
42 86
42 88
42 89
42 90
42 91
42 92
42 93
42 94
42 96
42 97
42 99
42 100
42 101
42 102
42 103
42 105
42 107
42 108
42 109
42 110
42 111
42 112
42 113
42 115
42 118
42 119
42 120
42 121
42 122
42 124
42 130
42 131
42 133
42 134
42 136
42 139
43 44
43 45
43 46
43 49
43 50
43 51
43 52
43 54
43 55
43 57
43 58
43 59
43 60
43 61
43 65
43 66
43 70
43 71
43 74
43 79
43 81
43 82
43 85
43 86
43 88
43 89
43 90
43 91
43 92
43 93
43 94
43 96
43 97
43 100
43 101
43 103
43 105
43 107
43 109
43 110
43 111
43 112
43 113
43 115
43 118
43 119
43 121
43 122
43 124
43 127
43 129
43 130
43 131
43 133
43 134
43 139
44 45
44 46
44 49
44 50
44 51
44 52
44 53
44 54
44 55
44 57
44 58
44 59
44 60
44 61
44 65
44 66
44 70
44 71
44 74
44 76
44 79
44 81
44 82
44 83
44 85
44 86
44 88
44 89
44 90
44 91
44 92
44 93
44 94
44 96
44 97
44 99
44 100
44 101
44 102
44 103
44 104
44 105
44 107
44 108
44 109
44 110
44 111
44 112
44 113
44 115
44 118
44 119
44 120
44 121
44 122
44 124
44 127
44 130
44 131
44 133
44 134
44 136
44 139
45 46
45 49
45 50
45 51
45 52
45 53
45 54
45 55
45 57
45 58
45 59
45 60
45 61
45 65
45 66
45 70
45 71
45 72
45 74
45 76
45 79
45 81
45 82
45 85
45 86
45 88
45 89
45 90
45 91
45 92
45 93
45 94
45 96
45 97
45 100
45 101
45 102
45 103
45 104
45 105
45 107
45 108
45 109
45 110
45 111
45 112
45 113
45 115
45 118
45 119
45 120
45 121
45 122
45 124
45 130
45 131
45 133
45 134
45 136
45 139
46 49
46 50
46 51
46 52
46 53
46 54
46 55
46 57
46 58
46 59
46 60
46 61
46 65
46 66
46 70
46 71
46 72
46 74
46 76
46 79
46 81
46 82
46 83
46 85
46 86
46 88
46 89
46 90
46 91
46 92
46 93
46 94
46 96
46 97
46 99
46 100
46 101
46 102
46 103
46 104
46 105
46 107
46 108
46 109
46 110
46 111
46 112
46 113
46 115
46 118
46 119
46 120
46 121
46 122
46 124
46 127
46 130
46 131
46 133
46 134
46 135
46 136
46 139
47 56
47 62
47 68
47 69
47 75
47 77
47 78
47 87
47 95
47 117
47 123
47 126
47 138
48 62
48 67
48 68
48 69
48 75
48 77
48 116
48 137
48 138
49 50
49 51
49 52
49 53
49 54
49 55
49 57
49 58
49 59
49 60
49 61
49 65
49 66
49 70
49 71
49 72
49 74
49 76
49 79
49 81
49 82
49 83
49 85
49 86
49 88
49 89
49 90
49 91
49 92
49 93
49 94
49 96
49 97
49 100
49 101
49 103
49 104
49 105
49 107
49 109
49 110
49 111
49 112
49 113
49 115
49 118
49 119
49 121
49 122
49 124
49 130
49 131
49 133
49 134
49 135
49 139
50 51
50 52
50 53
50 54
50 55
50 57
50 58
50 59
50 60
50 61
50 65
50 66
50 70
50 71
50 72
50 74
50 76
50 79
50 81
50 82
50 85
50 86
50 88
50 89
50 90
50 91
50 92
50 94
50 96
50 97
50 100
50 101
50 102
50 103
50 105
50 107
50 108
50 109
50 110
50 111
50 112
50 113
50 118
50 119
50 121
50 122
50 124
50 127
50 129
50 130
50 131
50 133
50 134
50 135
50 136
50 139
51 52
51 53
51 54
51 55
51 57
51 58
51 59
51 60
51 61
51 65
51 66
51 70
51 71
51 72
51 74
51 76
51 79
51 81
51 82
51 83
51 85
51 86
51 88
51 89
51 90
51 91
51 92
51 93
51 94
51 96
51 97
51 99
51 100
51 101
51 102
51 103
51 104
51 105
51 107
51 108
51 109
51 110
51 111
51 112
51 113
51 115
51 118
51 119
51 120
51 121
51 122
51 124
51 127
51 130
51 131
51 133
51 134
51 135
51 136
51 139
52 53
52 54
52 55
52 57
52 58
52 59
52 60
52 61
52 65
52 66
52 70
52 71
52 72
52 74
52 75
52 76
52 79
52 81
52 82
52 83
52 85
52 86
52 88
52 89
52 90
52 91
52 92
52 93
52 94
52 96
52 97
52 99
52 100
52 101
52 102
52 103
52 104
52 105
52 107
52 108
52 109
52 110
52 111
52 112
52 113
52 115
52 118
52 119
52 120
52 121
52 122
52 124
52 127
52 129
52 130
52 131
52 133
52 134
52 135
52 136
52 139
53 54
53 55
53 57
53 58
53 59
53 60
53 61
53 65
53 66
53 70
53 71
53 72
53 74
53 76
53 79
53 81
53 82
53 83
53 85
53 86
53 88
53 89
53 90
53 91
53 92
53 93
53 94
53 96
53 97
53 100
53 101
53 103
53 104
53 105
53 107
53 109
53 110
53 112
53 113
53 115
53 118
53 119
53 121
53 122
53 124
53 130
53 133
53 134
53 139
54 55
54 57
54 58
54 59
54 60
54 61
54 65
54 66
54 70
54 71
54 72
54 74
54 76
54 79
54 81
54 82
54 83
54 85
54 86
54 88
54 89
54 90
54 91
54 92
54 93
54 94
54 96
54 97
54 99
54 100
54 101
54 102
54 103
54 104
54 105
54 107
54 108
54 109
54 110
54 111
54 112
54 113
54 115
54 118
54 119
54 120
54 121
54 122
54 124
54 130
54 131
54 133
54 134
54 135
54 136
54 139
55 57
55 58
55 59
55 60
55 61
55 65
55 66
55 70
55 71
55 74
55 76
55 79
55 81
55 82
55 83
55 85
55 86
55 88
55 89
55 90
55 91
55 92
55 93
55 94
55 96
55 97
55 99
55 100
55 101
55 102
55 103
55 105
55 107
55 108
55 109
55 110
55 111
55 112
55 113
55 115
55 118
55 119
55 121
55 122
55 124
55 127
55 129
55 130
55 131
55 133
55 134
55 135
55 136
55 139
56 62
56 68
56 69
56 75
56 95
56 117
56 123
56 126
56 128
56 137
57 58
57 59
57 60
57 61
57 65
57 66
57 70
57 71
57 72
57 74
57 76
57 79
57 81
57 82
57 83
57 85
57 86
57 88
57 89
57 90
57 91
57 92
57 93
57 94
57 96
57 97
57 99
57 100
57 101
57 102
57 103
57 104
57 105
57 107
57 108
57 109
57 110
57 111
57 112
57 113
57 115
57 118
57 119
57 120
57 121
57 122
57 124
57 127
57 130
57 131
57 133
57 134
57 135
57 136
57 139
58 59
58 60
58 61
58 65
58 66
58 70
58 71
58 72
58 74
58 76
58 79
58 81
58 82
58 83
58 85
58 86
58 88
58 89
58 90
58 91
58 92
58 93
58 94
58 96
58 97
58 99
58 100
58 101
58 102
58 103
58 105
58 107
58 108
58 109
58 110
58 111
58 112
58 113
58 115
58 118
58 119
58 121
58 122
58 124
58 127
58 130
58 131
58 133
58 134
58 135
58 136
58 139
59 60
59 61
59 65
59 66
59 70
59 71
59 74
59 76
59 79
59 81
59 82
59 83
59 85
59 86
59 88
59 89
59 90
59 91
59 92
59 93
59 94
59 96
59 97
59 100
59 101
59 102
59 103
59 105
59 107
59 108
59 109
59 110
59 111
59 112
59 113
59 115
59 118
59 119
59 121
59 122
59 124
59 127
59 129
59 130
59 131
59 133
59 134
59 135
59 136
59 139
60 61
60 65
60 66
60 70
60 71
60 72
60 74
60 76
60 79
60 81
60 82
60 83
60 85
60 86
60 88
60 89
60 90
60 91
60 92
60 93
60 94
60 96
60 97
60 99
60 100
60 101
60 102
60 103
60 104
60 105
60 107
60 108
60 109
60 110
60 111
60 112
60 113
60 115
60 118
60 119
60 120
60 121
60 122
60 124
60 127
60 129
60 130
60 131
60 133
60 134
60 135
60 136
60 139
61 65
61 66
61 70
61 71
61 72
61 74
61 76
61 79
61 81
61 82
61 83
61 85
61 86
61 88
61 89
61 90
61 91
61 92
61 93
61 94
61 96
61 97
61 100
61 101
61 102
61 103
61 104
61 105
61 107
61 108
61 109
61 110
61 111
61 112
61 113
61 115
61 118
61 119
61 121
61 122
61 124
61 127
61 130
61 131
61 133
61 134
61 135
61 136
61 139
62 64
62 67
62 68
62 69
62 73
62 75
62 77
62 78
62 80
62 87
62 95
62 106
62 116
62 117
62 123
62 125
62 126
62 128
63 64
63 69
63 73
63 75
63 77
63 78
63 84
63 98
63 106
63 128
63 138
64 68
64 69
64 73
64 75
64 77
64 78
64 84
64 98
64 114
64 123
64 125
64 128
64 132
65 66
65 70
65 71
65 72
65 74
65 76
65 79
65 81
65 82
65 83
65 85
65 86
65 88
65 89
65 90
65 91
65 92
65 93
65 94
65 96
65 97
65 99
65 100
65 101
65 102
65 103
65 104
65 105
65 107
65 108
65 109
65 110
65 111
65 112
65 113
65 115
65 118
65 119
65 120
65 121
65 122
65 124
65 127
65 130
65 131
65 133
65 134
65 135
65 136
65 139
66 70
66 71
66 72
66 74
66 76
66 79
66 81
66 82
66 83
66 85
66 86
66 88
66 89
66 90
66 91
66 92
66 93
66 94
66 96
66 97
66 99
66 100
66 101
66 102
66 103
66 105
66 107
66 108
66 109
66 110
66 111
66 112
66 113
66 115
66 118
66 119
66 121
66 122
66 124
66 127
66 130
66 131
66 133
66 134
66 135
66 136
66 139
67 68
67 69
67 75
67 77
67 116
67 137
67 138
68 69
68 73
68 75
68 77
68 78
68 80
68 84
68 87
68 95
68 98
68 117
68 123
68 125
68 126
68 128
68 137
68 138
69 73
69 75
69 77
69 78
69 80
69 84
69 85
69 87
69 95
69 98
69 100
69 114
69 116
69 117
69 123
69 126
69 128
69 132
69 137
69 138
70 71
70 72
70 74
70 76
70 79
70 81
70 82
70 83
70 85
70 86
70 88
70 89
70 90
70 91
70 92
70 93
70 94
70 96
70 97
70 99
70 100
70 101
70 102
70 103
70 104
70 105
70 107
70 108
70 109
70 110
70 111
70 112
70 113
70 115
70 118
70 119
70 120
70 121
70 122
70 124
70 127
70 130
70 131
70 133
70 134
70 135
70 136
70 139
71 74
71 79
71 81
71 82
71 85
71 86
71 88
71 89
71 90
71 91
71 92
71 93
71 94
71 96
71 97
71 100
71 101
71 103
71 105
71 107
71 108
71 109
71 110
71 111
71 112
71 113
71 115
71 118
71 119
71 121
71 122
71 124
71 127
71 129
71 130
71 131
71 133
71 134
71 136
71 139
72 76
72 79
72 82
72 83
72 85
72 86
72 88
72 89
72 90
72 92
72 96
72 97
72 100
72 101
72 103
72 105
72 112
72 115
72 118
72 119
72 121
72 124
72 130
72 131
72 133
72 134
72 135
72 139
73 75
73 77
73 78
73 84
73 98
73 106
73 125
73 128
73 138
74 76
74 79
74 81
74 82
74 83
74 85
74 86
74 88
74 89
74 90
74 91
74 92
74 93
74 94
74 96
74 97
74 99
74 100
74 101
74 102
74 103
74 105
74 107
74 108
74 109
74 110
74 111
74 112
74 113
74 115
74 118
74 119
74 120
74 121
74 122
74 124
74 127
74 129
74 130
74 131
74 133
74 134
74 135
74 136
74 139
75 77
75 78
75 80
75 84
75 85
75 87
75 95
75 98
75 114
75 116
75 117
75 123
75 125
75 126
75 128
75 132
75 137
75 138
76 79
76 82
76 83
76 85
76 86
76 88
76 89
76 90
76 91
76 92
76 94
76 96
76 97
76 99
76 100
76 101
76 102
76 103
76 105
76 107
76 108
76 109
76 110
76 111
76 112
76 113
76 115
76 118
76 119
76 121
76 122
76 124
76 130
76 131
76 133
76 139
77 78
77 80
77 84
77 87
77 98
77 116
77 117
77 123
77 126
77 128
77 132
77 137
77 138
78 80
78 84
78 98
78 106
78 123
78 128
78 138
79 81
79 82
79 83
79 85
79 86
79 88
79 89
79 90
79 91
79 92
79 94
79 96
79 97
79 100
79 101
79 102
79 103
79 105
79 107
79 108
79 109
79 110
79 111
79 112
79 113
79 115
79 118
79 119
79 120
79 121
79 122
79 124
79 127
79 129
79 130
79 131
79 133
79 134
79 136
79 139
80 117
80 123
80 126
80 128
81 82
81 83
81 85
81 86
81 88
81 89
81 90
81 91
81 92
81 93
81 94
81 96
81 97
81 100
81 101
81 102
81 103
81 105
81 107
81 108
81 109
81 110
81 111
81 112
81 113
81 115
81 118
81 119
81 121
81 122
81 124
81 127
81 129
81 130
81 131
81 133
81 134
81 135
81 136
81 139
82 83
82 85
82 86
82 88
82 89
82 90
82 91
82 92
82 93
82 94
82 96
82 97
82 100
82 101
82 102
82 103
82 105
82 107
82 109
82 110
82 111
82 112
82 113
82 115
82 118
82 119
82 120
82 121
82 122
82 124
82 127
82 130
82 131
82 133
82 134
82 135
82 136
82 139
83 85
83 86
83 88
83 89
83 90
83 93
83 94
83 96
83 97
83 100
83 101
83 103
83 105
83 107
83 109
83 110
83 112
83 113
83 115
83 118
83 119
83 122
83 124
83 130
83 131
83 133
83 134
83 139
84 98
84 106
84 128
84 138
85 86
85 88
85 89
85 90
85 91
85 92
85 93
85 94
85 96
85 97
85 100
85 101
85 102
85 103
85 104
85 105
85 107
85 108
85 109
85 110
85 111
85 112
85 113
85 115
85 118
85 119
85 120
85 121
85 122
85 124
85 127
85 129
85 130
85 131
85 133
85 134
85 135
85 136
85 139
86 88
86 89
86 90
86 91
86 92
86 93
86 94
86 96
86 97
86 99
86 100
86 101
86 102
86 103
86 104
86 105
86 107
86 108
86 109
86 110
86 111
86 112
86 113
86 115
86 118
86 119
86 120
86 121
86 122
86 124
86 127
86 130
86 131
86 133
86 134
86 136
86 139
87 117
87 126
88 89
88 90
88 91
88 92
88 93
88 94
88 96
88 97
88 99
88 100
88 101
88 102
88 103
88 104
88 105
88 107
88 108
88 109
88 110
88 111
88 112
88 113
88 115
88 118
88 119
88 120
88 121
88 122
88 124
88 127
88 130
88 131
88 133
88 134
88 135
88 136
88 139
89 90
89 91
89 92
89 93
89 94
89 96
89 97
89 100
89 101
89 102
89 103
89 104
89 105
89 107
89 108
89 109
89 110
89 111
89 112
89 113
89 115
89 118
89 119
89 121
89 122
89 124
89 127
89 130
89 131
89 133
89 134
89 135
89 136
89 139
90 91
90 92
90 93
90 94
90 96
90 97
90 99
90 100
90 101
90 102
90 103
90 104
90 105
90 107
90 108
90 109
90 110
90 111
90 112
90 113
90 115
90 118
90 119
90 120
90 121
90 122
90 124
90 127
90 130
90 131
90 133
90 134
90 135
90 136
90 139
91 92
91 93
91 94
91 96
91 97
91 100
91 101
91 103
91 105
91 107
91 109
91 110
91 111
91 112
91 113
91 115
91 118
91 119
91 121
91 122
91 124
91 127
91 129
91 130
91 131
91 133
91 134
91 139
92 93
92 94
92 96
92 97
92 99
92 100
92 101
92 102
92 103
92 104
92 107
92 108
92 109
92 110
92 111
92 112
92 113
92 115
92 118
92 119
92 120
92 121
92 122
92 124
92 130
92 131
92 133
92 134
92 135
92 136
92 139
93 94
93 96
93 97
93 100
93 101
93 103
93 104
93 105
93 107
93 109
93 110
93 112
93 113
93 115
93 118
93 119
93 121
93 122
93 124
93 130
93 131
93 133
93 139
94 96
94 97
94 99
94 100
94 101
94 102
94 103
94 105
94 107
94 108
94 109
94 110
94 111
94 112
94 113
94 115
94 118
94 119
94 120
94 121
94 122
94 124
94 127
94 129
94 130
94 131
94 133
94 134
94 135
94 136
94 139
95 123
95 137
96 97
96 99
96 100
96 101
96 102
96 103
96 104
96 105
96 107
96 108
96 109
96 110
96 111
96 112
96 113
96 115
96 118
96 119
96 120
96 121
96 122
96 124
96 130
96 131
96 133
96 134
96 135
96 136
96 139
97 99
97 100
97 101
97 102
97 103
97 104
97 105
97 107
97 108
97 109
97 110
97 111
97 112
97 113
97 115
97 118
97 119
97 120
97 121
97 122
97 124
97 127
97 129
97 130
97 131
97 133
97 134
97 135
97 136
97 139
98 106
98 114
98 117
98 126
98 128
98 132
98 138
99 100
99 101
99 102
99 107
99 108
99 109
99 111
99 112
99 113
99 115
99 118
99 119
99 122
99 124
99 130
99 131
99 133
99 136
99 139
100 101
100 102
100 103
100 104
100 105
100 107
100 108
100 109
100 110
100 111
100 112
100 113
100 115
100 118
100 119
100 120
100 121
100 122
100 124
100 127
100 129
100 130
100 131
100 133
100 134
100 135
100 136
100 139
101 102
101 103
101 104
101 105
101 107
101 108
101 109
101 110
101 111
101 112
101 113
101 115
101 118
101 119
101 120
101 121
101 122
101 124
101 127
101 130
101 131
101 133
101 134
101 135
101 136
101 139
102 103
102 107
102 108
102 109
102 110
102 111
102 112
102 113
102 115
102 118
102 119
102 120
102 121
102 122
102 124
102 130
102 131
102 133
102 134
102 135
102 136
102 139
103 104
103 105
103 107
103 108
103 109
103 110
103 111
103 112
103 113
103 115
103 118
103 119
103 121
103 122
103 124
103 127
103 129
103 130
103 131
103 133
103 134
103 135
103 136
103 139
104 105
104 112
104 113
104 115
104 118
104 119
104 121
104 131
104 133
104 139
105 107
105 109
105 110
105 111
105 113
105 115
105 118
105 119
105 121
105 122
105 124
105 127
105 129
105 131
105 133
105 134
105 139
106 128
107 108
107 109
107 110
107 111
107 112
107 113
107 115
107 118
107 119
107 120
107 121
107 122
107 124
107 127
107 129
107 130
107 131
107 133
107 134
107 135
107 136
107 139
108 109
108 110
108 111
108 112
108 113
108 115
108 118
108 120
108 121
108 122
108 124
108 130
108 131
108 133
108 134
108 135
108 136
108 139
109 110
109 111
109 112
109 113
109 115
109 118
109 119
109 120
109 121
109 122
109 124
109 127
109 129
109 130
109 131
109 133
109 134
109 135
109 136
109 139
110 111
110 112
110 113
110 115
110 118
110 119
110 121
110 122
110 124
110 127
110 129
110 130
110 131
110 133
110 134
110 135
110 136
110 139
111 112
111 113
111 115
111 118
111 119
111 121
111 122
111 124
111 127
111 129
111 130
111 131
111 133
111 134
111 139
112 113
112 115
112 118
112 119
112 120
112 121
112 122
112 124
112 130
112 131
112 133
112 134
112 135
112 136
112 139
113 115
113 118
113 119
113 121
113 122
113 124
113 127
113 129
113 130
113 131
113 133
113 134
113 135
113 136
113 139
114 125
114 128
114 132
115 118
115 119
115 120
115 121
115 122
115 124
115 127
115 130
115 131
115 133
115 134
115 136
115 139
116 138
117 123
117 126
117 128
117 137
118 119
118 120
118 121
118 122
118 124
118 127
118 130
118 131
118 133
118 134
118 135
118 136
118 139
119 121
119 122
119 124
119 127
119 130
119 131
119 133
119 134
119 135
119 136
119 139
120 122
120 124
120 130
120 131
120 133
120 136
120 139
121 122
121 124
121 127
121 130
121 131
121 133
121 134
121 135
121 136
121 139
122 124
122 127
122 130
122 131
122 133
122 134
122 136
122 139
123 126
123 137
123 138
124 130
124 131
124 133
124 134
124 136
124 139
125 128
125 132
126 128
126 137
127 129
127 131
127 133
127 139
128 132
129 131
129 133
129 139
130 131
130 133
130 134
130 135
130 136
130 139
131 133
131 134
131 135
131 136
131 139
133 134
133 136
133 139
134 135
134 136
134 139
135 139
136 139
137 138
